33582
101011000111010010011000010100
25 19 2 27 5 4 16 19 27 0 4 0 10 10 19 27 9 20 27 0 27 16 13 0 10 27 27 0 4 2 19 19 4 16 27 11 10 9 16 16 11 10 11 9 9 19 20 27 19 19 0 16 16 16 20 19 25 9 27 25 4 0 25 20 13 11 0 10 0 27 25 25 19 9 5 10 10 13 13 16 13 0 9 25 19 20 19 5 27 25 11 4 25 25 2 20 2 4 0 25 0 16 25 25 4 10 4 16 27 13 19 4 27 11 11 20 11 25 5 20 19 11 10 19 9 16 5 11 19 10 0 2 25 20 5 9 13 13 11 13 11 11 11 19 25 0 2 16 27 25 16 20 5 0 10 11 16 16 13 13 13 10 10 0 0 27 5 4 0 16 5 20 19 20 20 2 0 20 4 10 5 16 2 19 11 9 11 5 0 16 2 16 19 4 25 11 25 0 10 20 